15 3 
4749	4749	4749	
518	235	245	
271	927	949	
620	939	1010	
89	837	915	
924	389	394	
664	955	1043	
35	572	612	
401	379	392	
348	492	506	
84	945	1013	
968	763	829	
682	134	136	
888	411	445	
69	746	795	
783	774	833	
